This is Ipopt version 3.13.4, running with linear solver mumps.
NOTE: Other linear solvers might be more efficient (see Ipopt documentation).

Number of nonzeros in equality constraint Jacobian...:      884
Number of nonzeros in inequality constraint Jacobian.:        0
Number of nonzeros in Lagrangian Hessian.............:        0

Total number of variables............................:       52
                     variables with only lower bounds:        0
                variables with lower and upper bounds:       52
                     variables with only upper bounds:        0
Total number of equality constraints.................:       17
Total number of inequality constraints...............:        0
        inequality constraints with only lower bounds:        0
   inequality constraints with lower and upper bounds:        0
        inequality constraints with only upper bounds:        0

iter    objective    inf_pr   inf_du lg(mu)  ||d||  lg(rg) alpha_du alpha_pr  ls
   0  1.0211926e+00 5.68e-01 1.72e-03   0.0 0.00e+00    -  0.00e+00 0.00e+00   0
   1  1.0106029e+00 5.07e-01 1.78e+01  -0.1 8.55e-01    -  9.15e-01 6.30e-01f  1
   2  1.0102803e+00 6.10e-01 1.46e+02   0.2 6.14e-01    -  1.00e+00 2.02e-01f  2
   3  1.0098265e+00 5.28e-01 1.49e+02   0.2 1.37e+00    -  9.16e-01 1.64e-01h  1
   4  1.0077770e+00 3.28e-01 2.67e+02   0.4 1.30e+00    -  1.00e+00 3.41e-01h  1
   5  1.0065195e+00 2.45e-01 8.90e+02   0.9 6.90e+00    -  1.00e+00 2.15e-01h  1
   6  1.0074180e+00 1.07e+00 1.94e+04   1.4 6.93e+00    -  1.00e+00 5.95e-01f  1
   7  1.0072285e+00 2.16e+00 1.28e+04   1.3 2.25e+00    -  8.73e-01 6.47e-01h  1
   8  1.0069799e+00 1.87e+00 2.77e+04   1.3 1.69e+01    -  9.69e-02 1.13e-01h  1
   9  1.0058508e+00 1.63e+00 7.96e+04   1.3 4.23e+00    -  1.27e-01 1.46e-01h  1
iter    objective    inf_pr   inf_du lg(mu)  ||d||  lg(rg) alpha_du alpha_pr  ls
  10  1.0099662e+00 7.79e-01 4.43e+03   2.3 9.32e+00    -  3.78e-01 3.40e-01f  1
  11  1.0081456e+00 6.76e-01 3.70e+03   1.8 7.70e+00    -  2.48e-01 1.91e-01h  1
  12  1.0064151e+00 4.29e-01 5.07e+03   1.1 8.51e+00    -  1.39e-01 2.43e-01h  1
  13  1.0061530e+00 4.76e-01 4.77e+04   3.0 2.59e+01    -  3.17e-01 7.40e-02f  1
  14  1.0075918e+00 5.71e-01 6.13e+04   3.2 1.66e+01    -  3.32e-01 1.84e-01h  1
  15  1.0064193e+00 5.17e-01 2.12e+05   2.8 9.55e+00    -  2.34e-01 2.31e-01h  1
  16  1.0058949e+00 5.45e-01 6.69e+05   3.2 1.35e+01    -  8.51e-02 1.99e-01H  1
  17  1.0059975e+00 5.17e-01 8.47e+05   3.2 1.45e+01    -  5.87e-01 7.19e-02h  1
  18  1.0060252e+00 5.12e-01 9.65e+05   3.2 1.89e+01    -  3.63e-01 1.10e-02h  4
  19  1.0060505e+00 5.10e-01 1.17e+06   3.2 3.27e+01    -  6.67e-02 1.64e-02h  4
iter    objective    inf_pr   inf_du lg(mu)  ||d||  lg(rg) alpha_du alpha_pr  ls
  20  1.0060701e+00 5.08e-01 2.40e+06   3.2 2.49e+01    -  1.10e-01 8.15e-03h  4
  21  1.0061067e+00 5.06e-01 4.69e+06   3.2 4.30e+01    -  5.71e-02 9.27e-03h  3
  22  1.0061324e+00 5.04e-01 1.28e+07   3.2 2.67e+01    -  8.11e-02 9.33e-03h  3
  23  1.0061379e+00 5.04e-01 3.42e+07   3.2 7.74e+01    -  5.00e-02 1.91e-03h  5
  24  1.0061424e+00 5.03e-01 7.05e+07   3.2 7.82e+01    -  3.83e-02 1.84e-03h  5
  25  1.0061433e+00 5.03e-01 1.62e+08   3.2 1.26e+02    -  3.92e-02 3.58e-04h  6
  26  1.0061469e+00 5.03e-01 3.14e+08   3.2 9.33e+01    -  3.31e-02 1.54e-03h  5
  27  1.0061559e+00 5.02e-01 6.44e+08   3.2 6.64e+01    -  4.52e-02 4.75e-03h  4
  28  1.0061572e+00 5.02e-01 9.39e+08   3.2 6.24e+01    -  4.34e-02 2.07e-03h  6
  29  1.0061578e+00 5.00e-01 1.14e+09   3.2 5.73e+01    -  9.64e-02 7.13e-03h  4
iter    objective    inf_pr   inf_du lg(mu)  ||d||  lg(rg) alpha_du alpha_pr  ls
  30  1.0061583e+00 5.00e-01 1.86e+09   3.2 7.46e+01    -  8.02e-02 1.24e-03h  5
  31  1.0061583e+00 4.99e-01 2.06e+09   3.2 5.14e+01    -  6.45e-02 9.03e-03h  4
  32  1.0061860e+00 5.59e-01 3.47e+09   3.2 4.09e+01    -  1.21e-01 5.18e-02w  1
  33  1.0061241e+00 1.07e+00 6.72e+10   3.2 8.83e+00    -  1.99e-03 4.21e-01w  1
  34  1.0061232e+00 1.05e+00 6.86e+10   2.5 1.75e+01    -  5.24e-02 1.35e-02h  1
  35  1.0061232e+00 1.05e+00 6.86e+10   2.5 1.99e+01    -  4.88e-03 4.49e-05h  1
  36  1.0061232e+00 1.05e+00 6.86e+10   2.5 1.48e+01    -  1.85e-03 5.91e-04h  1
  37  1.0061235e+00 1.04e+00 6.81e+10   2.5 1.43e+01    -  7.59e-02 1.42e-02f  1
  38  1.0061235e+00 1.04e+00 6.81e+10   2.5 1.55e+01    -  2.18e-02 1.21e-04h  1
  39  1.0061235e+00 1.04e+00 6.82e+10   2.5 1.90e+01    -  1.74e-02 7.15e-04h  1
iter    objective    inf_pr   inf_du lg(mu)  ||d||  lg(rg) alpha_du alpha_pr  ls
  40  1.0057775e+00 1.02e+00 6.60e+10   2.5 1.42e+01    -  2.86e-04 4.79e-02f  1
  41  1.0057281e+00 9.56e-01 5.65e+10   3.0 1.52e+01    -  9.89e-01 2.55e-01f  1
  42  1.0057047e+00 9.55e-01 5.64e+10   3.2 1.71e+01    -  4.72e-03 9.99e-04h  1
  43  1.0053491e+00 9.44e-01 5.71e+10   3.2 1.85e+01    -  2.16e-03 1.47e-02f  1
  44  1.0048655e+00 9.29e-01 5.58e+10   3.2 2.05e+01    -  7.12e-03 1.94e-02h  1
  45  1.0048609e+00 9.29e-01 5.58e+10   3.2 2.27e+01    -  1.35e-04 1.75e-04h  1
  46r 1.0048609e+00 9.29e-01 8.69e+02   3.2 0.00e+00    -  0.00e+00 4.10e-07R  4
  47r 1.0140420e+00 4.54e-01 6.40e+02   1.1 2.99e+00    -  9.21e-01 7.61e-01f  1
  48  1.0139601e+00 4.52e-01 7.86e+01   0.1 1.75e+00   4.0 2.11e-01 5.29e-03h  1
  49  1.0139206e+00 4.51e-01 3.57e+02  -0.6 2.34e+00   3.5 1.07e-02 1.76e-03h  1
iter    objective    inf_pr   inf_du lg(mu)  ||d||  lg(rg) alpha_du alpha_pr  ls
  50  1.0138366e+00 4.49e-01 6.59e+03  -0.6 2.82e+00   3.9 4.99e-02 3.88e-03h  1
  51  1.0133540e+00 4.38e-01 1.41e+04  -0.6 8.12e+00   3.5 9.13e-02 2.75e-02h  1
  52  1.0128389e+00 4.28e-01 1.36e+04  -0.6 1.26e+01    -  1.84e-02 2.36e-02h  1
  53  1.0128301e+00 4.28e-01 2.20e+04  -0.6 1.63e+01    -  2.69e-01 3.28e-04h  1
  54  1.0120646e+00 4.18e-01 2.12e+04  -0.6 1.94e+01    -  3.16e-02 2.39e-02h  1
  55  1.0120276e+00 4.17e-01 2.79e+04  -0.6 3.17e+01    -  8.52e-02 3.73e-03h  1
  56  1.0118254e+00 4.15e-01 2.65e+04  -0.6 4.91e+01    -  2.12e-02 2.40e-02h  1
  57  1.0117674e+00 4.15e-01 2.18e+04  -0.6 5.85e+01    -  2.79e-03 7.01e-03h  2
  58  1.0117368e+00 4.14e-01 1.82e+04  -0.6 5.85e+01    -  1.46e-03 3.72e-03h  3
  59  1.0117012e+00 4.13e-01 2.06e+04  -0.6 5.34e+01    -  5.86e-03 4.35e-03h  2
iter    objective    inf_pr   inf_du lg(mu)  ||d||  lg(rg) alpha_du alpha_pr  ls
  60  1.0116974e+00 4.13e-01 3.97e+04  -0.6 8.54e+01    -  3.78e-03 4.69e-04h  4
  61  1.0116969e+00 4.13e-01 4.72e+04  -0.6 9.74e+01    -  1.25e-03 6.44e-05h  6
  62  1.0116963e+00 4.13e-01 4.74e+04  -0.6 1.02e+02    -  1.89e-03 7.51e-05f  6
  63  1.0116955e+00 4.12e-01 7.86e+04  -0.6 1.15e+02    -  4.86e-03 9.52e-05h  5
  64  1.0116950e+00 4.12e-01 8.34e+04  -0.6 1.10e+02    -  1.30e-03 5.40e-05h  6
  65  1.0116945e+00 4.12e-01 1.03e+05  -0.6 9.80e+01    -  3.73e-03 6.36e-05f  6
  66  1.0116937e+00 4.12e-01 1.03e+05  -0.6 1.16e+02    -  1.45e-03 9.69e-05f  5
  67  1.0116812e+00 4.13e-01 6.14e+05  -0.6 1.14e+02    -  6.42e-03 1.54e-03w  1
  68  1.0116791e+00 4.13e-01 7.53e+05  -0.6 9.98e+01    -  9.72e-04 2.64e-04w  1
  69  1.0116693e+00 4.13e-01 8.19e+05  -0.6 1.79e+02    -  1.89e-03 1.21e-03w  1
iter    objective    inf_pr   inf_du lg(mu)  ||d||  lg(rg) alpha_du alpha_pr  ls
  70  1.0116935e+00 4.12e-01 1.84e+05  -0.6 7.07e+01    -  6.42e-03 2.40e-05h  6
  71  1.0116916e+00 4.12e-01 2.98e+05  -0.6 1.29e+02    -  9.76e-03 2.43e-04h  3
  72  1.0116646e+00 4.14e-01 3.06e+05  -0.6 1.09e+02    -  5.66e-03 3.34e-03h  4
  73  1.0115462e+00 4.15e-01 6.10e+05  -0.6 5.32e+01    -  4.52e-02 1.47e-02h  1
  74  1.0114673e+00 4.13e-01 4.13e+05  -0.6 4.42e+01    -  7.26e-04 9.96e-03h  2
  75  1.0114669e+00 4.13e-01 1.39e+06  -0.6 1.99e+02    -  1.21e-03 4.82e-05h  5
